NPROCS=0
This instance is clustered!
Gurobi Optimizer version 9.0.0 build v9.0.0rc2 (linux64)
Optimize a model with 34 rows, 290 columns and 578 nonzeros
Model fingerprint: 0x1ee9d734
Variable types: 1 continuous, 289 integer (289 binary)
Coefficient statistics:
  Matrix range     [1e+00, 1e+00]
  Objective range  [1e+00, 2e+02]
  Bounds range     [1e+00, 1e+00]
  RHS range        [1e+00, 1e+00]
Presolve removed 2 rows and 48 columns
Presolve time: 0.00s
Presolved: 32 rows, 242 columns, 482 nonzeros
Variable types: 1 continuous, 241 integer (241 binary)

Root relaxation: objective 4.658147e+02, 32 iterations, 0.00 seconds

    Nodes    |    Current Node    |     Objective Bounds      |     Work
 Expl Unexpl |  Obj  Depth IntInf | Incumbent    BestBd   Gap | It/Node Time

     0     0  465.81467    0   20          -  465.81467      -     -    0s
     0     0  480.82884    0    8          -  480.82884      -     -    0s
H    0     0                     671.9827589  480.82884  28.4%     -    0s
H    0     0                     627.2341101  480.82884  23.3%     -    0s
     0     0  482.63007    0   28  627.23411  482.63007  23.1%     -    0s
     0     2  482.63007    0   28  627.23411  482.63007  23.1%     -    0s
  7408  2972  571.19433   13   28  627.23411  565.02707  9.92%   3.9    6s
H 7409  2824                     627.2340993  565.02707  9.92%   3.9    6s
H 7754  2770                     627.2340989  565.02707  9.92%   4.0    7s
 13269  2749  587.51685   26    -  627.23410  565.87675  9.78%   4.4   10s
 20366  2445  623.29129   33   21  627.23410  590.48097  5.86%   4.6   15s
H20751  2488                     627.2340642  592.57213  5.53%   4.6   15s
 23547  1800 infeasible   38       627.23406  601.89161  4.04%   4.7   20s

Cutting planes:
  Lazy constraints: 3013

Explored 27567 nodes (125254 simplex iterations) in 23.87 seconds
Thread count was 12 (of 12 available processors)

Solution count 2: 627.234 671.983 

Optimal solution found (tolerance 1.00e-04)
Best objective 6.272340641549e+02, best bound 6.272340641549e+02, gap 0.0000%

User-callback calls 65436, time in user-callback 0.36 sec
/projects/academic/josewalt/caigao/RRARP_BD/BendersDecomp/ret/model_outs/n_15_m_4_algo_2.out
 =====>>>>> Solution is written to file in <../ret/model_outs> !!!
===>> All Done!
